benchmark/results/graph__15-1000-0.10-02_9/graph__15-1000-0.10-02_9_Quinton_Benders_aux.lp
\ This file has been generated by DOcplex
\ ENCODING=ISO-8859-1
\Problem name: Quinton Benders_auxiliary_sub

Minimize
 obj: 0.001412429378 pi_nr_a0 + 0.001177245237 pi_nr_a1
      + 0.002810264411 pi_nr_a2 + 0.001686340641 pi_nr_a3
      + 0.001043841336 pi_nr_a4 + 0.000976562500 pi_nr_a5
      + 0.001468697590 pi_nr_a6 + 0.001912045889 pi_nr_a7
      + 0.001206272618 pi_nr_a8 + 0.000980392157 pi_nr_a9
      + 0.000989175317 pi_nr_a10 + 0.000772797527 pi_nr_a11
      + 0.001276527795 pi_nr_a12 + 0.001136363636 pi_nr_a13
      + 0.001352315305 pi_nr_a14 + pi_p_a1_a2 + 2 pi_p_a0_a5 + pi_p_a3_a10
      + pi_p_a14_a13 + pi_p_a8_a10 + pi_p_a3_a11 + pi_p_a10_a5 + pi_p_a6_a5
      + pi_p_a4_a8 + pi_p_a14_a2 + 1492.883294214815 pi_d_a0_a1_proc_0
      + 0.000030592899 pi_d_a1_a0_proc_0 + 1294.997486277221 pi_d_a0_a2_proc_0
      + 0.000210791943 pi_d_a2_a0_proc_0 - 0.054688378528 pi_d_a0_a4_proc_0
      + 1.054688529141 pi_d_a4_a0_proc_0 + 1.000000166212 pi_d_a0_a6_proc_0
      + 121.312500059721 pi_d_a6_a0_proc_0
      + 2425.962831533252 pi_d_a0_a10_proc_0 + 0.062684075790 pi_d_a10_a0_proc_0
      + 1.513304172753 pi_d_a0_a12_proc_0 + 1094.339830428478 pi_d_a12_a0_proc_0
      + 1.000013474113 pi_d_a0_a13_proc_0 - 0.000013323501 pi_d_a13_a0_proc_0
      + 1330.309453112626 pi_d_a0_a14_proc_0 + 0.866929082084 pi_d_a14_a0_proc_0
      + 2584.032245187991 pi_d_a1_a2_proc_0
      + 2386.151223537017 pi_d_a1_a2_proc_1 + 202.848776538274 pi_d_a2_a1_proc_0
      + 4.967754887301 pi_d_a2_a1_proc_1 + 1096.116672934499 pi_d_a1_a3_proc_1
      + 1.000002483692 pi_d_a3_a1_proc_1 + 162.499331432104 pi_d_a1_a4_proc_0
      + 1330.383993375610 pi_d_a4_a1_proc_0 + 324.883190295048 pi_d_a1_a5_proc_1
      + 772.233485123143 pi_d_a5_a1_proc_1 + 157.602705926780 pi_d_a1_a6_proc_0
      + 1132.406881119037 pi_d_a1_a6_proc_1
      + 1456.593118956254 pi_d_a6_a1_proc_0
      + 2431.397294148512 pi_d_a6_a1_proc_1 + 450.116456049000 pi_d_a1_a7_proc_1
      + 647.000219369191 pi_d_a7_a1_proc_1 + 1096.053987978434 pi_d_a1_a8_proc_1
      + 1.062687439757 pi_d_a8_a1_proc_1 + 323.889523361635 pi_d_a1_a9_proc_1
      + 773.227152056555 pi_d_a9_a1_proc_1
      + 2588.463201076869 pi_d_a1_a10_proc_0
      + 1259.554360886017 pi_d_a1_a10_proc_1
      + 1329.445639189275 pi_d_a10_a1_proc_0 + 0.536798998422 pi_d_a10_a1_proc_1
      + 1097.116675342870 pi_d_a1_a11_proc_1 + 0.000000075321 pi_d_a11_a1_proc_1
      + 2264.236088663078 pi_d_a1_a12_proc_0
      + 2265.499629480037 pi_d_a1_a12_proc_1
      + 323.500370595255 pi_d_a12_a1_proc_0
      + 324.763911412214 pi_d_a12_a1_proc_1
      + 1481.234041693708 pi_d_a1_a13_proc_0
      + 11.649283114006 pi_d_a13_a1_proc_0
      + 1331.050912627979 pi_d_a1_a14_proc_0
      + 1096.991205851460 pi_d_a1_a14_proc_1
      + 1492.008794223832 pi_d_a14_a1_proc_0
      + 1257.949087447312 pi_d_a14_a1_proc_1
      + 1294.001326471567 pi_d_a2_a3_proc_1 + 1.000976685173 pi_d_a3_a2_proc_1
      + 1293.160834390204 pi_d_a2_a4_proc_0 + 1.836862678960 pi_d_a4_a2_proc_0
      + 674.001436906721 pi_d_a2_a5_proc_1 + 621.000866250019 pi_d_a5_a2_proc_1
      + 1293.997696993873 pi_d_a2_a6_proc_0
      + 2466.687499924679 pi_d_a2_a6_proc_1 + 122.312500150612 pi_d_a6_a2_proc_0
      + 1295.002303081419 pi_d_a6_a2_proc_1
      + 1294.002014594967 pi_d_a2_a7_proc_1 + 1.000288561772 pi_d_a7_a2_proc_1
      - 0.119924218219 pi_d_a2_a8_proc_1 + 1295.122227374959 pi_d_a8_a2_proc_1
      + 1294.000166716403 pi_d_a2_a9_proc_1 + 1.002136440336 pi_d_a9_a2_proc_1
      + 1131.563887074619 pi_d_a2_a10_proc_0 + 0.540674622316 pi_d_a2_a10_proc_1
      + 2588.459325452975 pi_d_a10_a2_proc_0
      + 1457.436113000673 pi_d_a10_a2_proc_1 + 0.565266415360 pi_d_a2_a11_proc_1
      + 1294.437036741379 pi_d_a11_a2_proc_1
      + 1294.999933479325 pi_d_a2_a12_proc_0
      + 1494.149102034833 pi_d_a2_a12_proc_1
      + 1094.850898040459 pi_d_a12_a2_proc_0
      + 1294.000066595967 pi_d_a12_a2_proc_1
      + 1274.747696993843 pi_d_a2_a13_proc_0
      + 20.250000075321 pi_d_a13_a2_proc_0
      + 2573.742829164490 pi_d_a2_a14_proc_0
      + 2537.568750126520 pi_d_a2_a14_proc_1
      + 51.431249948771 pi_d_a14_a2_proc_0 + 15.257170910802 pi_d_a14_a2_proc_1
      + 1.390166416531 pi_d_a3_a5_proc_1 - 0.390166265919 pi_d_a5_a3_proc_1
      + 2467.687499940366 pi_d_a3_a6_proc_1 + 0.000000059605 pi_d_a6_a3_proc_1
      + 1.000976683310 pi_d_a3_a7_proc_1 - 0.000976532698 pi_d_a7_a3_proc_1
      + 0.312359961477 pi_d_a3_a8_proc_1 + 0.687640189135 pi_d_a8_a3_proc_1
      + 0.384154237661 pi_d_a3_a9_proc_1 + 0.615845912951 pi_d_a9_a3_proc_1
      + 163.911800541071 pi_d_a3_a10_proc_1 + 0.062684075790 pi_d_a10_a3_proc_1
      + 1.000000075292 pi_d_a3_a11_proc_1 + 0.000000075321 pi_d_a11_a3_proc_1
      + 1494.532621135673 pi_d_a3_a12_proc_1 - 0.385755511001 pi_d_a12_a3_proc_1
      + 1258.760399886611 pi_d_a3_a14_proc_1 + 0.063218144584 pi_d_a14_a3_proc_1
      + 122.742436605651 pi_d_a4_a6_proc_0 - 0.429936379718 pi_d_a6_a4_proc_0
      + 1112.210231159494 pi_d_a4_a10_proc_0
      + 1313.815284449549 pi_d_a10_a4_proc_0
      + 325.493041934125 pi_d_a4_a12_proc_0
      + 770.360092667106 pi_d_a12_a4_proc_0 + 1.487594281061 pi_d_a4_a13_proc_0
      - 0.487594130449 pi_d_a13_a4_proc_0 + 1331.320680036704 pi_d_a4_a14_proc_0
      - 0.144297841995 pi_d_a14_a4_proc_0 + 2466.432762065087 pi_d_a5_a6_proc_1
      + 1.254737934883 pi_d_a6_a5_proc_1 + 0.000000075321 pi_d_a5_a7_proc_1
      + 1.000000075292 pi_d_a7_a5_proc_1 - 0.499721451721 pi_d_a5_a8_proc_1
      + 1.499721602333 pi_d_a8_a5_proc_1 - 0.437197814463 pi_d_a5_a9_proc_1
      + 1.437197965075 pi_d_a9_a5_proc_1 + 163.411907412228 pi_d_a5_a10_proc_1
      + 0.562577204633 pi_d_a10_a5_proc_1 + 0.312439919682 pi_d_a5_a11_proc_1
      + 0.687560230930 pi_d_a11_a5_proc_1 + 1493.146865549381 pi_d_a5_a12_proc_1
      + 1.000000075292 pi_d_a12_a5_proc_1 + 934.534368567751 pi_d_a5_a14_proc_1
      + 324.289249463443 pi_d_a14_a5_proc_1
      + 2467.687499924650 pi_d_a6_a7_proc_1 + 0.000000075321 pi_d_a7_a6_proc_1
      + 2461.569671247737 pi_d_a6_a8_proc_1 + 6.117828752234 pi_d_a8_a6_proc_1
      + 328.573702024936 pi_d_a6_a9_proc_1 + 2139.113797975035 pi_d_a9_a6_proc_1
      + 2100.151228448231 pi_d_a6_a10_proc_0
      + 2141.813212839159 pi_d_a6_a10_proc_1
      + 447.186787236133 pi_d_a10_a6_proc_0
      + 488.848771627061 pi_d_a10_a6_proc_1
      + 2467.431299116637 pi_d_a6_a11_proc_1 + 0.256200883334 pi_d_a11_a6_proc_1
      + 1095.853134525911 pi_d_a6_a12_proc_0
      + 2467.687499924650 pi_d_a6_a12_proc_1
      + 121.312500150641 pi_d_a12_a6_proc_0
      + 1493.146865549381 pi_d_a12_a6_proc_1
      + 122.312500150612 pi_d_a6_a13_proc_0 + 0.000000075321 pi_d_a13_a6_proc_0
      + 5.802747074107 pi_d_a6_a14_proc_0 + 1142.313864879368 pi_d_a6_a14_proc_1
      + 1446.686135195923 pi_d_a14_a6_proc_0
      + 2583.197253001184 pi_d_a14_a6_proc_1 - 0.064148814243 pi_d_a7_a8_proc_1
      + 1.064148964855 pi_d_a8_a7_proc_1 - 0.000183045515 pi_d_a7_a9_proc_1
      + 1.000183196127 pi_d_a9_a7_proc_1 + 163.785063748393 pi_d_a7_a10_proc_1
      + 0.189420868468 pi_d_a10_a7_proc_1 + 0.621566800284 pi_d_a7_a11_proc_1
      + 0.378433350328 pi_d_a11_a7_proc_1 + 1494.146865549352 pi_d_a7_a12_proc_1
      + 0.000000075321 pi_d_a12_a7_proc_1 + 288.079481145600 pi_d_a7_a14_proc_1
      + 970.744136885594 pi_d_a14_a7_proc_1 + 1.000000820408 pi_d_a8_a9_proc_1
      - 0.000000669796 pi_d_a9_a8_proc_1 + 163.974484541541 pi_d_a8_a10_proc_1
      + 0.000000075321 pi_d_a10_a8_proc_1 + 1.125429856504 pi_d_a8_a11_proc_1
      - 0.125429705891 pi_d_a11_a8_proc_1 + 1494.010813553614 pi_d_a8_a12_proc_1
      + 0.136052071059 pi_d_a12_a8_proc_1 + 1258.823572168330 pi_d_a8_a14_proc_1
      + 0.000045862864 pi_d_a14_a8_proc_1 + 163.911968537635 pi_d_a9_a10_proc_1
      + 0.062516079226 pi_d_a10_a9_proc_1 + 0.812927471270 pi_d_a9_a11_proc_1
      + 0.187072679342 pi_d_a11_a9_proc_1 + 1.042680579674 pi_d_a9_a12_proc_1
      + 1493.104185044998 pi_d_a12_a9_proc_1
      + 1258.627762952732 pi_d_a9_a14_proc_1 + 0.195855078462 pi_d_a14_a9_proc_1
      + 162.231321106141 pi_d_a10_a11_proc_1
      + 1.743163510720 pi_d_a11_a10_proc_1
      + 2425.999594397785 pi_d_a10_a12_proc_0
      + 1494.120944413415 pi_d_a10_a12_proc_1
      + 1094.879055661877 pi_d_a12_a10_proc_0
      + 163.000405677507 pi_d_a12_a10_proc_1
      + 2425.525485004939 pi_d_a10_a13_proc_0
      + 0.500030604104 pi_d_a13_a10_proc_0
      + 1981.002847414289 pi_d_a10_a14_proc_0
      + 813.800949836441 pi_d_a10_a14_proc_1
      + 1775.199050238851 pi_d_a14_a10_proc_0
      + 607.997152661002 pi_d_a14_a10_proc_1
      + 0.437041657366 pi_d_a11_a12_proc_1
      + 1493.709823967307 pi_d_a12_a11_proc_1
      + 4.424706527760 pi_d_a11_a14_proc_1
      + 1254.398911503435 pi_d_a14_a11_proc_1
      + 1095.853134525911 pi_d_a12_a13_proc_0
      + 0.000000075321 pi_d_a13_a12_proc_0
      + 2425.367855271325 pi_d_a12_a14_proc_0
      + 2588.338338701287 pi_d_a12_a14_proc_1
      + 0.661661374004 pi_d_a14_a12_proc_0
      + 163.632144803967 pi_d_a14_a12_proc_1
      + 1330.676382119418 pi_d_a13_a14_proc_0
      + 0.500000075292 pi_d_a14_a13_proc_0 + 0.999999999971 pi_y2_a0_proc_0
      + 0.423538128001 pi_y2_a1_proc_0 + 0.576461871970 pi_y2_a1_proc_1
      + 0.500000889879 pi_y2_a2_proc_0 + 0.499999110092 pi_y2_a2_proc_1
      + 0.999999999971 pi_y2_a3_proc_1 + 0.999999999971 pi_y2_a4_proc_0
      + 0.999999999971 pi_y2_a5_proc_1 + 0.953124999942 pi_y2_a6_proc_0
      + 0.046875000029 pi_y2_a6_proc_1 + 0.999999999971 pi_y2_a7_proc_1
      + 0.999999999971 pi_y2_a8_proc_1 + 0.999999999971 pi_y2_a9_proc_1
      + 0.062973139284 pi_y2_a10_proc_0 + 0.937026860687 pi_y2_a10_proc_1
      + 0.999999999971 pi_y2_a11_proc_1 + 0.576950102579 pi_y2_a12_proc_0
      + 0.423049897392 pi_y2_a12_proc_1 + 0.999999999971 pi_y2_a13_proc_0
      + 0.486021490680 pi_y2_a14_proc_0 + 0.513978509291 pi_y2_a14_proc_1
Subject To
 c1: 0.001412429379 pi_nr_a0 + 0.001013171226 pi_nr_a1 + 0.002242152466 pi_nr_a2
     + 0.001686340641 pi_nr_a3 + 0.001043841336 pi_nr_a4
     + 0.000976562500 pi_nr_a5 + 0.001499250375 pi_nr_a6
     + 0.001912045889 pi_nr_a7 + 0.001206272618 pi_nr_a8
     + 0.000980392157 pi_nr_a9 + 0.000969932105 pi_nr_a10
     + 0.000772797527 pi_nr_a11 + 0.000898472597 pi_nr_a12
     + 0.001136363636 pi_nr_a13 + 0.001204819277 pi_nr_a14 + pi_p_a1_a2
     + 2 pi_p_a0_a5 + pi_p_a3_a10 + pi_p_a14_a13 + pi_p_a8_a10 + pi_p_a3_a11
     + pi_p_a10_a5 + pi_p_a6_a5 + pi_p_a4_a8 + pi_p_a14_a2
     + 2589 pi_d_a0_a1_proc_0 + pi_d_a0_a2_proc_0 + pi_d_a4_a0_proc_0
     + pi_d_a0_a6_proc_0 + 2589 pi_d_a0_a10_proc_0 + pi_d_a0_a12_proc_0
     + pi_d_a0_a13_proc_0 + 2589 pi_d_a0_a14_proc_0 + 2587 pi_d_a1_a2_proc_0
     + 2587 pi_d_a1_a2_proc_1 + 2 pi_d_a2_a1_proc_0 + 2 pi_d_a2_a1_proc_1
     + pi_d_a3_a1_proc_1 + 2589 pi_d_a4_a1_proc_0 + pi_d_a1_a5_proc_1
     + pi_d_a1_a6_proc_0 + pi_d_a1_a6_proc_1 + 2588 pi_d_a6_a1_proc_0
     + 2588 pi_d_a6_a1_proc_1 + pi_d_a1_a7_proc_1 + pi_d_a8_a1_proc_1
     + pi_d_a9_a1_proc_1 + 2589 pi_d_a1_a10_proc_0 + pi_d_a1_a10_proc_1
     + 2588 pi_d_a10_a1_proc_0 + pi_d_a1_a11_proc_1 + 2589 pi_d_a1_a12_proc_0
     + 2589 pi_d_a1_a12_proc_1 + 2586 pi_d_a1_a13_proc_0 + 3 pi_d_a13_a1_proc_0
     + 2589 pi_d_a1_a14_proc_0 + pi_d_a1_a14_proc_1 + 2588 pi_d_a14_a1_proc_0
     + 2588 pi_d_a2_a3_proc_1 + pi_d_a3_a2_proc_1 + pi_d_a4_a2_proc_0
     + 1347 pi_d_a2_a5_proc_1 + 1242 pi_d_a5_a2_proc_1 + 2588 pi_d_a2_a6_proc_1
     + pi_d_a6_a2_proc_0 + 2589 pi_d_a6_a2_proc_1 + 2588 pi_d_a2_a7_proc_1
     + pi_d_a7_a2_proc_1 + 2589 pi_d_a8_a2_proc_1 + 2588 pi_d_a2_a9_proc_1
     + pi_d_a9_a2_proc_1 + pi_d_a2_a10_proc_0 + pi_d_a2_a10_proc_1
     + 2588 pi_d_a10_a2_proc_0 + 2588 pi_d_a10_a2_proc_1 + pi_d_a2_a11_proc_1
     + 2588 pi_d_a11_a2_proc_1 + pi_d_a2_a12_proc_0 + 2589 pi_d_a2_a12_proc_1
     + 2588 pi_d_a12_a2_proc_1 + pi_d_a2_a13_proc_0 + 2589 pi_d_a2_a14_proc_0
     + 2589 pi_d_a2_a14_proc_1 + pi_d_a3_a5_proc_1 + 2589 pi_d_a3_a6_proc_1
     + pi_d_a3_a7_proc_1 + pi_d_a8_a3_proc_1 + pi_d_a9_a3_proc_1
     + pi_d_a3_a10_proc_1 + pi_d_a3_a11_proc_1 + 2589 pi_d_a3_a12_proc_1
     + pi_d_a3_a14_proc_1 + pi_d_a4_a6_proc_0 + pi_d_a4_a10_proc_0
     + 2588 pi_d_a10_a4_proc_0 + pi_d_a4_a12_proc_0 + pi_d_a4_a13_proc_0
     + 2589 pi_d_a4_a14_proc_0 + 2588 pi_d_a5_a6_proc_1 + pi_d_a6_a5_proc_1
     + pi_d_a7_a5_proc_1 + pi_d_a8_a5_proc_1 + pi_d_a9_a5_proc_1
     + pi_d_a5_a10_proc_1 + pi_d_a5_a11_proc_1 + 2588 pi_d_a5_a12_proc_1
     + pi_d_a12_a5_proc_1 + pi_d_a5_a14_proc_1 + 2589 pi_d_a6_a7_proc_1
     + 2588 pi_d_a6_a8_proc_1 + pi_d_a8_a6_proc_1 + 2589 pi_d_a9_a6_proc_1
     + 2589 pi_d_a6_a10_proc_0 + 2589 pi_d_a6_a10_proc_1
     + 2589 pi_d_a6_a11_proc_1 + pi_d_a6_a12_proc_0 + 2589 pi_d_a6_a12_proc_1
     + 2588 pi_d_a12_a6_proc_1 + pi_d_a6_a13_proc_0 + pi_d_a6_a14_proc_0
     + pi_d_a6_a14_proc_1 + 2588 pi_d_a14_a6_proc_0 + 2588 pi_d_a14_a6_proc_1
     + pi_d_a8_a7_proc_1 + pi_d_a9_a7_proc_1 + pi_d_a7_a10_proc_1
     + pi_d_a7_a11_proc_1 + 2589 pi_d_a7_a12_proc_1 + pi_d_a7_a14_proc_1
     + pi_d_a8_a9_proc_1 + pi_d_a8_a10_proc_1 + pi_d_a8_a11_proc_1
     + 2589 pi_d_a8_a12_proc_1 + pi_d_a8_a14_proc_1 + pi_d_a9_a10_proc_1
     + pi_d_a9_a11_proc_1 + pi_d_a9_a12_proc_1 + 2588 pi_d_a12_a9_proc_1
     + pi_d_a9_a14_proc_1 + pi_d_a11_a10_proc_1 + 2588 pi_d_a10_a12_proc_0
     + 2588 pi_d_a10_a12_proc_1 + pi_d_a12_a10_proc_0 + pi_d_a12_a10_proc_1
     + 2588 pi_d_a10_a13_proc_0 + pi_d_a13_a10_proc_0 + 2588 pi_d_a10_a14_proc_0
     + 2589 pi_d_a14_a10_proc_0 + pi_d_a14_a10_proc_1 + 2589 pi_d_a12_a11_proc_1
     + pi_d_a14_a11_proc_1 + pi_d_a12_a13_proc_0 + 2589 pi_d_a12_a14_proc_0
     + 2589 pi_d_a12_a14_proc_1 + 2589 pi_d_a13_a14_proc_0 + pi_y2_a0_proc_0
     + pi_y2_a1_proc_1 + pi_y2_a2_proc_0 + pi_y2_a3_proc_1 + pi_y2_a4_proc_0
     + pi_y2_a5_proc_1 + pi_y2_a6_proc_0 + pi_y2_a7_proc_1 + pi_y2_a8_proc_1
     + pi_y2_a9_proc_1 + pi_y2_a10_proc_1 + pi_y2_a11_proc_1 + pi_y2_a12_proc_0
     + pi_y2_a13_proc_0 + pi_y2_a14_proc_1 = 0.000088668204
 c2: pi_nr_a0 + pi_nr_a1 + pi_nr_a2 + pi_nr_a3 + pi_nr_a4 + pi_nr_a5 + pi_nr_a6
     + pi_nr_a7 + pi_nr_a8 + pi_nr_a9 + pi_nr_a10 + pi_nr_a11 + pi_nr_a12
     + pi_nr_a13 + pi_nr_a14 - pi_y1_a0 - pi_y1_a1 - pi_y1_a2 - pi_y1_a3
     - pi_y1_a4 - pi_y1_a5 - pi_y1_a6 - pi_y1_a7 - pi_y1_a8 - pi_y1_a9
     - pi_y1_a10 - pi_y1_a11 - pi_y1_a12 - pi_y1_a13 - pi_y1_a14 >= 1
 c3: - pi_p_a1_a0 + pi_p_a0_a3 + pi_p_a0_a5 - pi_p_a6_a0 + pi_d_a0_a1_proc_0
     - pi_d_a1_a0_proc_0 + pi_d_a0_a2_proc_0 - pi_d_a2_a0_proc_0
     + pi_d_a0_a4_proc_0 - pi_d_a4_a0_proc_0 + pi_d_a0_a6_proc_0
     - pi_d_a6_a0_proc_0 + pi_d_a0_a10_proc_0 - pi_d_a10_a0_proc_0
     + pi_d_a0_a12_proc_0 - pi_d_a12_a0_proc_0 + pi_d_a0_a13_proc_0
     - pi_d_a13_a0_proc_0 + pi_d_a0_a14_proc_0 - pi_d_a14_a0_proc_0 >= 0
 c4: 708 pi_p_a0_a3 + 708 pi_p_a0_a5 + 708 pi_d_a0_a1_proc_0
     + 708 pi_d_a0_a2_proc_0 + 708 pi_d_a0_a4_proc_0 + 708 pi_d_a0_a6_proc_0
     + 708 pi_d_a0_a10_proc_0 + 708 pi_d_a0_a12_proc_0 + 708 pi_d_a0_a13_proc_0
     + 708 pi_d_a0_a14_proc_0 + pi_y1_a0 + pi_y2_a0_proc_0 >= 0
 c5: pi_p_a1_a0 + pi_p_a1_a2 + pi_p_a1_a8 - pi_p_a11_a1 - pi_d_a0_a1_proc_0
     + pi_d_a1_a0_proc_0 + pi_d_a1_a2_proc_0 + pi_d_a1_a2_proc_1
     - pi_d_a2_a1_proc_0 - pi_d_a2_a1_proc_1 + pi_d_a1_a3_proc_1
     - pi_d_a3_a1_proc_1 + pi_d_a1_a4_proc_0 - pi_d_a4_a1_proc_0
     + pi_d_a1_a5_proc_1 - pi_d_a5_a1_proc_1 + pi_d_a1_a6_proc_0
     + pi_d_a1_a6_proc_1 - pi_d_a6_a1_proc_0 - pi_d_a6_a1_proc_1
     + pi_d_a1_a7_proc_1 - pi_d_a7_a1_proc_1 + pi_d_a1_a8_proc_1
     - pi_d_a8_a1_proc_1 + pi_d_a1_a9_proc_1 - pi_d_a9_a1_proc_1
     + pi_d_a1_a10_proc_0 + pi_d_a1_a10_proc_1 - pi_d_a10_a1_proc_0
     - pi_d_a10_a1_proc_1 + pi_d_a1_a11_proc_1 - pi_d_a11_a1_proc_1
     + pi_d_a1_a12_proc_0 + pi_d_a1_a12_proc_1 - pi_d_a12_a1_proc_0
     - pi_d_a12_a1_proc_1 + pi_d_a1_a13_proc_0 - pi_d_a13_a1_proc_0
     + pi_d_a1_a14_proc_0 + pi_d_a1_a14_proc_1 - pi_d_a14_a1_proc_0
     - pi_d_a14_a1_proc_1 >= 0
 c6: 714 pi_p_a1_a0 + 714 pi_p_a1_a2 + 714 pi_p_a1_a8 + 714 pi_d_a1_a0_proc_0
     + 714 pi_d_a1_a2_proc_0 + 714 pi_d_a1_a4_proc_0 + 714 pi_d_a1_a6_proc_0
     + 714 pi_d_a1_a10_proc_0 + 714 pi_d_a1_a12_proc_0 + 714 pi_d_a1_a13_proc_0
     + 714 pi_d_a1_a14_proc_0 + pi_y1_a1 + pi_y2_a1_proc_0 >= 0
 c7: 987 pi_p_a1_a0 + 987 pi_p_a1_a2 + 987 pi_p_a1_a8 + 987 pi_d_a1_a2_proc_1
     + 987 pi_d_a1_a3_proc_1 + 987 pi_d_a1_a5_proc_1 + 987 pi_d_a1_a6_proc_1
     + 987 pi_d_a1_a7_proc_1 + 987 pi_d_a1_a8_proc_1 + 987 pi_d_a1_a9_proc_1
     + 987 pi_d_a1_a10_proc_1 + 987 pi_d_a1_a11_proc_1 + 987 pi_d_a1_a12_proc_1
     + 987 pi_d_a1_a14_proc_1 + pi_y1_a1 + pi_y2_a1_proc_1 >= 0
 c8: - pi_p_a1_a2 - pi_p_a12_a2 + pi_p_a2_a7 - pi_p_a14_a2 - pi_d_a0_a2_proc_0
     + pi_d_a2_a0_proc_0 - pi_d_a1_a2_proc_0 - pi_d_a1_a2_proc_1
     + pi_d_a2_a1_proc_0 + pi_d_a2_a1_proc_1 + pi_d_a2_a3_proc_1
     - pi_d_a3_a2_proc_1 + pi_d_a2_a4_proc_0 - pi_d_a4_a2_proc_0
     + pi_d_a2_a5_proc_1 - pi_d_a5_a2_proc_1 + pi_d_a2_a6_proc_0
     + pi_d_a2_a6_proc_1 - pi_d_a6_a2_proc_0 - pi_d_a6_a2_proc_1
     + pi_d_a2_a7_proc_1 - pi_d_a7_a2_proc_1 + pi_d_a2_a8_proc_1
     - pi_d_a8_a2_proc_1 + pi_d_a2_a9_proc_1 - pi_d_a9_a2_proc_1
     + pi_d_a2_a10_proc_0 + pi_d_a2_a10_proc_1 - pi_d_a10_a2_proc_0
     - pi_d_a10_a2_proc_1 + pi_d_a2_a11_proc_1 - pi_d_a11_a2_proc_1
     + pi_d_a2_a12_proc_0 + pi_d_a2_a12_proc_1 - pi_d_a12_a2_proc_0
     - pi_d_a12_a2_proc_1 + pi_d_a2_a13_proc_0 - pi_d_a13_a2_proc_0
     + pi_d_a2_a14_proc_0 + pi_d_a2_a14_proc_1 - pi_d_a14_a2_proc_0
     - pi_d_a14_a2_proc_1 >= 0
 c9: 446 pi_p_a2_a7 + 446 pi_d_a2_a0_proc_0 + 446 pi_d_a2_a1_proc_0
     + 446 pi_d_a2_a4_proc_0 + 446 pi_d_a2_a6_proc_0 + 446 pi_d_a2_a10_proc_0
     + 446 pi_d_a2_a12_proc_0 + 446 pi_d_a2_a13_proc_0 + 446 pi_d_a2_a14_proc_0
     + pi_y1_a2 + pi_y2_a2_proc_0 >= 0
 c10: 296 pi_p_a2_a7 + 296 pi_d_a2_a1_proc_1 + 296 pi_d_a2_a3_proc_1
      + 296 pi_d_a2_a5_proc_1 + 296 pi_d_a2_a6_proc_1 + 296 pi_d_a2_a7_proc_1
      + 296 pi_d_a2_a8_proc_1 + 296 pi_d_a2_a9_proc_1 + 296 pi_d_a2_a10_proc_1
      + 296 pi_d_a2_a11_proc_1 + 296 pi_d_a2_a12_proc_1 + 296 pi_d_a2_a14_proc_1
      + pi_y1_a2 + pi_y2_a2_proc_1 >= 0
 c11: - pi_p_a0_a3 + pi_p_a3_a4 + pi_p_a3_a10 + pi_p_a3_a11 - pi_d_a1_a3_proc_1
      + pi_d_a3_a1_proc_1 - pi_d_a2_a3_proc_1 + pi_d_a3_a2_proc_1
      + pi_d_a3_a5_proc_1 - pi_d_a5_a3_proc_1 + pi_d_a3_a6_proc_1
      - pi_d_a6_a3_proc_1 + pi_d_a3_a7_proc_1 - pi_d_a7_a3_proc_1
      + pi_d_a3_a8_proc_1 - pi_d_a8_a3_proc_1 + pi_d_a3_a9_proc_1
      - pi_d_a9_a3_proc_1 + pi_d_a3_a10_proc_1 - pi_d_a10_a3_proc_1
      + pi_d_a3_a11_proc_1 - pi_d_a11_a3_proc_1 + pi_d_a3_a12_proc_1
      - pi_d_a12_a3_proc_1 + pi_d_a3_a14_proc_1 - pi_d_a14_a3_proc_1 >= 0
 c12: 593 pi_p_a3_a4 + 593 pi_p_a3_a10 + 593 pi_p_a3_a11 + 593 pi_d_a3_a1_proc_1
      + 593 pi_d_a3_a2_proc_1 + 593 pi_d_a3_a5_proc_1 + 593 pi_d_a3_a6_proc_1
      + 593 pi_d_a3_a7_proc_1 + 593 pi_d_a3_a8_proc_1 + 593 pi_d_a3_a9_proc_1
      + 593 pi_d_a3_a10_proc_1 + 593 pi_d_a3_a11_proc_1 + 593 pi_d_a3_a12_proc_1
      + 593 pi_d_a3_a14_proc_1 + pi_y1_a3 + pi_y2_a3_proc_1 >= 0
 c13: - pi_p_a3_a4 + pi_p_a4_a8 - pi_d_a0_a4_proc_0 + pi_d_a4_a0_proc_0
      - pi_d_a1_a4_proc_0 + pi_d_a4_a1_proc_0 - pi_d_a2_a4_proc_0
      + pi_d_a4_a2_proc_0 + pi_d_a4_a6_proc_0 - pi_d_a6_a4_proc_0
      + pi_d_a4_a10_proc_0 - pi_d_a10_a4_proc_0 + pi_d_a4_a12_proc_0
      - pi_d_a12_a4_proc_0 + pi_d_a4_a13_proc_0 - pi_d_a13_a4_proc_0
      + pi_d_a4_a14_proc_0 - pi_d_a14_a4_proc_0 >= 0
 c14: 958 pi_p_a4_a8 + 958 pi_d_a4_a0_proc_0 + 958 pi_d_a4_a1_proc_0
      + 958 pi_d_a4_a2_proc_0 + 958 pi_d_a4_a6_proc_0 + 958 pi_d_a4_a10_proc_0
      + 958 pi_d_a4_a12_proc_0 + 958 pi_d_a4_a13_proc_0 + 958 pi_d_a4_a14_proc_0
      + pi_y1_a4 + pi_y2_a4_proc_0 >= 0
 c15: - pi_p_a0_a5 + pi_p_a5_a13 - pi_p_a10_a5 - pi_p_a6_a5 - pi_d_a1_a5_proc_1
      + pi_d_a5_a1_proc_1 - pi_d_a2_a5_proc_1 + pi_d_a5_a2_proc_1
      - pi_d_a3_a5_proc_1 + pi_d_a5_a3_proc_1 + pi_d_a5_a6_proc_1
      - pi_d_a6_a5_proc_1 + pi_d_a5_a7_proc_1 - pi_d_a7_a5_proc_1
      + pi_d_a5_a8_proc_1 - pi_d_a8_a5_proc_1 + pi_d_a5_a9_proc_1
      - pi_d_a9_a5_proc_1 + pi_d_a5_a10_proc_1 - pi_d_a10_a5_proc_1
      + pi_d_a5_a11_proc_1 - pi_d_a11_a5_proc_1 + pi_d_a5_a12_proc_1
      - pi_d_a12_a5_proc_1 + pi_d_a5_a14_proc_1 - pi_d_a14_a5_proc_1 >= 0
 c16: 1024 pi_p_a5_a13 + 1024 pi_d_a5_a1_proc_1 + 1024 pi_d_a5_a2_proc_1
      + 1024 pi_d_a5_a3_proc_1 + 1024 pi_d_a5_a6_proc_1 + 1024 pi_d_a5_a7_proc_1
      + 1024 pi_d_a5_a8_proc_1 + 1024 pi_d_a5_a9_proc_1
      + 1024 pi_d_a5_a10_proc_1 + 1024 pi_d_a5_a11_proc_1
      + 1024 pi_d_a5_a12_proc_1 + 1024 pi_d_a5_a14_proc_1 + pi_y1_a5
      + pi_y2_a5_proc_1 >= 0
 c17: pi_p_a6_a0 - pi_p_a7_a6 - pi_p_a13_a6 + pi_p_a6_a5 - pi_d_a0_a6_proc_0
      + pi_d_a6_a0_proc_0 - pi_d_a1_a6_proc_0 - pi_d_a1_a6_proc_1
      + pi_d_a6_a1_proc_0 + pi_d_a6_a1_proc_1 - pi_d_a2_a6_proc_0
      - pi_d_a2_a6_proc_1 + pi_d_a6_a2_proc_0 + pi_d_a6_a2_proc_1
      - pi_d_a3_a6_proc_1 + pi_d_a6_a3_proc_1 - pi_d_a4_a6_proc_0
      + pi_d_a6_a4_proc_0 - pi_d_a5_a6_proc_1 + pi_d_a6_a5_proc_1
      + pi_d_a6_a7_proc_1 - pi_d_a7_a6_proc_1 + pi_d_a6_a8_proc_1
      - pi_d_a8_a6_proc_1 + pi_d_a6_a9_proc_1 - pi_d_a9_a6_proc_1
      + pi_d_a6_a10_proc_0 + pi_d_a6_a10_proc_1 - pi_d_a10_a6_proc_0
      - pi_d_a10_a6_proc_1 + pi_d_a6_a11_proc_1 - pi_d_a11_a6_proc_1
      + pi_d_a6_a12_proc_0 + pi_d_a6_a12_proc_1 - pi_d_a12_a6_proc_0
      - pi_d_a12_a6_proc_1 + pi_d_a6_a13_proc_0 - pi_d_a13_a6_proc_0
      + pi_d_a6_a14_proc_0 + pi_d_a6_a14_proc_1 - pi_d_a14_a6_proc_0
      - pi_d_a14_a6_proc_1 >= 0
 c18: 667 pi_p_a6_a0 + 667 pi_p_a6_a5 + 667 pi_d_a6_a0_proc_0
      + 667 pi_d_a6_a1_proc_0 + 667 pi_d_a6_a2_proc_0 + 667 pi_d_a6_a4_proc_0
      + 667 pi_d_a6_a10_proc_0 + 667 pi_d_a6_a12_proc_0 + 667 pi_d_a6_a13_proc_0
      + 667 pi_d_a6_a14_proc_0 + pi_y1_a6 + pi_y2_a6_proc_0 >= 0
 c19: 1180 pi_p_a6_a0 + 1180 pi_p_a6_a5 + 1180 pi_d_a6_a1_proc_1
      + 1180 pi_d_a6_a2_proc_1 + 1180 pi_d_a6_a3_proc_1 + 1180 pi_d_a6_a5_proc_1
      + 1180 pi_d_a6_a7_proc_1 + 1180 pi_d_a6_a8_proc_1 + 1180 pi_d_a6_a9_proc_1
      + 1180 pi_d_a6_a10_proc_1 + 1180 pi_d_a6_a11_proc_1
      + 1180 pi_d_a6_a12_proc_1 + 1180 pi_d_a6_a14_proc_1 + pi_y1_a6
      + pi_y2_a6_proc_1 >= 0
 c20: pi_p_a7_a6 - pi_p_a2_a7 - pi_p_a13_a7 + pi_p_a7_a9 - pi_d_a1_a7_proc_1
      + pi_d_a7_a1_proc_1 - pi_d_a2_a7_proc_1 + pi_d_a7_a2_proc_1
      - pi_d_a3_a7_proc_1 + pi_d_a7_a3_proc_1 - pi_d_a5_a7_proc_1
      + pi_d_a7_a5_proc_1 - pi_d_a6_a7_proc_1 + pi_d_a7_a6_proc_1
      + pi_d_a7_a8_proc_1 - pi_d_a8_a7_proc_1 + pi_d_a7_a9_proc_1
      - pi_d_a9_a7_proc_1 + pi_d_a7_a10_proc_1 - pi_d_a10_a7_proc_1
      + pi_d_a7_a11_proc_1 - pi_d_a11_a7_proc_1 + pi_d_a7_a12_proc_1
      - pi_d_a12_a7_proc_1 + pi_d_a7_a14_proc_1 - pi_d_a14_a7_proc_1 >= 0
 c21: 523 pi_p_a7_a6 + 523 pi_p_a7_a9 + 523 pi_d_a7_a1_proc_1
      + 523 pi_d_a7_a2_proc_1 + 523 pi_d_a7_a3_proc_1 + 523 pi_d_a7_a5_proc_1
      + 523 pi_d_a7_a6_proc_1 + 523 pi_d_a7_a8_proc_1 + 523 pi_d_a7_a9_proc_1
      + 523 pi_d_a7_a10_proc_1 + 523 pi_d_a7_a11_proc_1 + 523 pi_d_a7_a12_proc_1
      + 523 pi_d_a7_a14_proc_1 + pi_y1_a7 + pi_y2_a7_proc_1 >= 0
 c22: - pi_p_a1_a8 - pi_p_a9_a8 + pi_p_a8_a10 - pi_p_a4_a8 - pi_d_a1_a8_proc_1
      + pi_d_a8_a1_proc_1 - pi_d_a2_a8_proc_1 + pi_d_a8_a2_proc_1
      - pi_d_a3_a8_proc_1 + pi_d_a8_a3_proc_1 - pi_d_a5_a8_proc_1
      + pi_d_a8_a5_proc_1 - pi_d_a6_a8_proc_1 + pi_d_a8_a6_proc_1
      - pi_d_a7_a8_proc_1 + pi_d_a8_a7_proc_1 + pi_d_a8_a9_proc_1
      - pi_d_a9_a8_proc_1 + pi_d_a8_a10_proc_1 - pi_d_a10_a8_proc_1
      + pi_d_a8_a11_proc_1 - pi_d_a11_a8_proc_1 + pi_d_a8_a12_proc_1
      - pi_d_a12_a8_proc_1 + pi_d_a8_a14_proc_1 - pi_d_a14_a8_proc_1 >= 0
 c23: 829 pi_p_a8_a10 + 829 pi_d_a8_a1_proc_1 + 829 pi_d_a8_a2_proc_1
      + 829 pi_d_a8_a3_proc_1 + 829 pi_d_a8_a5_proc_1 + 829 pi_d_a8_a6_proc_1
      + 829 pi_d_a8_a7_proc_1 + 829 pi_d_a8_a9_proc_1 + 829 pi_d_a8_a10_proc_1
      + 829 pi_d_a8_a11_proc_1 + 829 pi_d_a8_a12_proc_1 + 829 pi_d_a8_a14_proc_1
      + pi_y1_a8 + pi_y2_a8_proc_1 >= 0
 c24: pi_p_a9_a8 - pi_p_a7_a9 - pi_d_a1_a9_proc_1 + pi_d_a9_a1_proc_1
      - pi_d_a2_a9_proc_1 + pi_d_a9_a2_proc_1 - pi_d_a3_a9_proc_1
      + pi_d_a9_a3_proc_1 - pi_d_a5_a9_proc_1 + pi_d_a9_a5_proc_1
      - pi_d_a6_a9_proc_1 + pi_d_a9_a6_proc_1 - pi_d_a7_a9_proc_1
      + pi_d_a9_a7_proc_1 - pi_d_a8_a9_proc_1 + pi_d_a9_a8_proc_1
      + pi_d_a9_a10_proc_1 - pi_d_a10_a9_proc_1 + pi_d_a9_a11_proc_1
      - pi_d_a11_a9_proc_1 + pi_d_a9_a12_proc_1 - pi_d_a12_a9_proc_1
      + pi_d_a9_a14_proc_1 - pi_d_a14_a9_proc_1 >= 0
 c25: 1020 pi_p_a9_a8 + 1020 pi_d_a9_a1_proc_1 + 1020 pi_d_a9_a2_proc_1
      + 1020 pi_d_a9_a3_proc_1 + 1020 pi_d_a9_a5_proc_1 + 1020 pi_d_a9_a6_proc_1
      + 1020 pi_d_a9_a7_proc_1 + 1020 pi_d_a9_a8_proc_1
      + 1020 pi_d_a9_a10_proc_1 + 1020 pi_d_a9_a11_proc_1
      + 1020 pi_d_a9_a12_proc_1 + 1020 pi_d_a9_a14_proc_1 + pi_y1_a9
      + pi_y2_a9_proc_1 >= 0
 c26: - pi_p_a3_a10 - pi_p_a8_a10 + pi_p_a10_a5 + pi_p_a10_a14
      - pi_d_a0_a10_proc_0 + pi_d_a10_a0_proc_0 - pi_d_a1_a10_proc_0
      - pi_d_a1_a10_proc_1 + pi_d_a10_a1_proc_0 + pi_d_a10_a1_proc_1
      - pi_d_a2_a10_proc_0 - pi_d_a2_a10_proc_1 + pi_d_a10_a2_proc_0
      + pi_d_a10_a2_proc_1 - pi_d_a3_a10_proc_1 + pi_d_a10_a3_proc_1
      - pi_d_a4_a10_proc_0 + pi_d_a10_a4_proc_0 - pi_d_a5_a10_proc_1
      + pi_d_a10_a5_proc_1 - pi_d_a6_a10_proc_0 - pi_d_a6_a10_proc_1
      + pi_d_a10_a6_proc_0 + pi_d_a10_a6_proc_1 - pi_d_a7_a10_proc_1
      + pi_d_a10_a7_proc_1 - pi_d_a8_a10_proc_1 + pi_d_a10_a8_proc_1
      - pi_d_a9_a10_proc_1 + pi_d_a10_a9_proc_1 + pi_d_a10_a11_proc_1
      - pi_d_a11_a10_proc_1 + pi_d_a10_a12_proc_0 + pi_d_a10_a12_proc_1
      - pi_d_a12_a10_proc_0 - pi_d_a12_a10_proc_1 + pi_d_a10_a13_proc_0
      - pi_d_a13_a10_proc_0 + pi_d_a10_a14_proc_0 + pi_d_a10_a14_proc_1
      - pi_d_a14_a10_proc_0 - pi_d_a14_a10_proc_1 >= 0
 c27: 784 pi_p_a10_a5 + 784 pi_p_a10_a14 + 784 pi_d_a10_a0_proc_0
      + 784 pi_d_a10_a1_proc_0 + 784 pi_d_a10_a2_proc_0 + 784 pi_d_a10_a4_proc_0
      + 784 pi_d_a10_a6_proc_0 + 784 pi_d_a10_a12_proc_0
      + 784 pi_d_a10_a13_proc_0 + 784 pi_d_a10_a14_proc_0 + pi_y1_a10
      + pi_y2_a10_proc_0 >= 0
 c28: 1031 pi_p_a10_a5 + 1031 pi_p_a10_a14 + 1031 pi_d_a10_a1_proc_1
      + 1031 pi_d_a10_a2_proc_1 + 1031 pi_d_a10_a3_proc_1
      + 1031 pi_d_a10_a5_proc_1 + 1031 pi_d_a10_a6_proc_1
      + 1031 pi_d_a10_a7_proc_1 + 1031 pi_d_a10_a8_proc_1
      + 1031 pi_d_a10_a9_proc_1 + 1031 pi_d_a10_a11_proc_1
      + 1031 pi_d_a10_a12_proc_1 + 1031 pi_d_a10_a14_proc_1 + pi_y1_a10
      + pi_y2_a10_proc_1 >= 0
 c29: pi_p_a11_a1 - pi_p_a3_a11 - pi_d_a1_a11_proc_1 + pi_d_a11_a1_proc_1
      - pi_d_a2_a11_proc_1 + pi_d_a11_a2_proc_1 - pi_d_a3_a11_proc_1
      + pi_d_a11_a3_proc_1 - pi_d_a5_a11_proc_1 + pi_d_a11_a5_proc_1
      - pi_d_a6_a11_proc_1 + pi_d_a11_a6_proc_1 - pi_d_a7_a11_proc_1
      + pi_d_a11_a7_proc_1 - pi_d_a8_a11_proc_1 + pi_d_a11_a8_proc_1
      - pi_d_a9_a11_proc_1 + pi_d_a11_a9_proc_1 - pi_d_a10_a11_proc_1
      + pi_d_a11_a10_proc_1 + pi_d_a11_a12_proc_1 - pi_d_a12_a11_proc_1
      + pi_d_a11_a14_proc_1 - pi_d_a14_a11_proc_1 >= 0
 c30: 1294 pi_p_a11_a1 + 1294 pi_d_a11_a1_proc_1 + 1294 pi_d_a11_a2_proc_1
      + 1294 pi_d_a11_a3_proc_1 + 1294 pi_d_a11_a5_proc_1
      + 1294 pi_d_a11_a6_proc_1 + 1294 pi_d_a11_a7_proc_1
      + 1294 pi_d_a11_a8_proc_1 + 1294 pi_d_a11_a9_proc_1
      + 1294 pi_d_a11_a10_proc_1 + 1294 pi_d_a11_a12_proc_1
      + 1294 pi_d_a11_a14_proc_1 + pi_y1_a11 + pi_y2_a11_proc_1 >= 0
 c31: pi_p_a12_a2 - pi_p_a13_a12 - pi_d_a0_a12_proc_0 + pi_d_a12_a0_proc_0
      - pi_d_a1_a12_proc_0 - pi_d_a1_a12_proc_1 + pi_d_a12_a1_proc_0
      + pi_d_a12_a1_proc_1 - pi_d_a2_a12_proc_0 - pi_d_a2_a12_proc_1
      + pi_d_a12_a2_proc_0 + pi_d_a12_a2_proc_1 - pi_d_a3_a12_proc_1
      + pi_d_a12_a3_proc_1 - pi_d_a4_a12_proc_0 + pi_d_a12_a4_proc_0
      - pi_d_a5_a12_proc_1 + pi_d_a12_a5_proc_1 - pi_d_a6_a12_proc_0
      - pi_d_a6_a12_proc_1 + pi_d_a12_a6_proc_0 + pi_d_a12_a6_proc_1
      - pi_d_a7_a12_proc_1 + pi_d_a12_a7_proc_1 - pi_d_a8_a12_proc_1
      + pi_d_a12_a8_proc_1 - pi_d_a9_a12_proc_1 + pi_d_a12_a9_proc_1
      - pi_d_a10_a12_proc_0 - pi_d_a10_a12_proc_1 + pi_d_a12_a10_proc_0
      + pi_d_a12_a10_proc_1 - pi_d_a11_a12_proc_1 + pi_d_a12_a11_proc_1
      + pi_d_a12_a13_proc_0 - pi_d_a13_a12_proc_0 + pi_d_a12_a14_proc_0
      + pi_d_a12_a14_proc_1 - pi_d_a14_a12_proc_0 - pi_d_a14_a12_proc_1 >= 0
 c32: 1113 pi_p_a12_a2 + 1113 pi_d_a12_a0_proc_0 + 1113 pi_d_a12_a1_proc_0
      + 1113 pi_d_a12_a2_proc_0 + 1113 pi_d_a12_a4_proc_0
      + 1113 pi_d_a12_a6_proc_0 + 1113 pi_d_a12_a10_proc_0
      + 1113 pi_d_a12_a13_proc_0 + 1113 pi_d_a12_a14_proc_0 + pi_y1_a12
      + pi_y2_a12_proc_0 >= 0
 c33: 558 pi_p_a12_a2 + 558 pi_d_a12_a1_proc_1 + 558 pi_d_a12_a2_proc_1
      + 558 pi_d_a12_a3_proc_1 + 558 pi_d_a12_a5_proc_1 + 558 pi_d_a12_a6_proc_1
      + 558 pi_d_a12_a7_proc_1 + 558 pi_d_a12_a8_proc_1 + 558 pi_d_a12_a9_proc_1
      + 558 pi_d_a12_a10_proc_1 + 558 pi_d_a12_a11_proc_1
      + 558 pi_d_a12_a14_proc_1 + pi_y1_a12 + pi_y2_a12_proc_1 >= 0
 c34: - pi_p_a5_a13 - pi_p_a14_a13 + pi_p_a13_a6 + pi_p_a13_a12 + pi_p_a13_a7
      - pi_d_a0_a13_proc_0 + pi_d_a13_a0_proc_0 - pi_d_a1_a13_proc_0
      + pi_d_a13_a1_proc_0 - pi_d_a2_a13_proc_0 + pi_d_a13_a2_proc_0
      - pi_d_a4_a13_proc_0 + pi_d_a13_a4_proc_0 - pi_d_a6_a13_proc_0
      + pi_d_a13_a6_proc_0 - pi_d_a10_a13_proc_0 + pi_d_a13_a10_proc_0
      - pi_d_a12_a13_proc_0 + pi_d_a13_a12_proc_0 + pi_d_a13_a14_proc_0
      - pi_d_a14_a13_proc_0 >= 0
 c35: 880 pi_p_a13_a6 + 880 pi_p_a13_a12 + 880 pi_p_a13_a7
      + 880 pi_d_a13_a0_proc_0 + 880 pi_d_a13_a1_proc_0 + 880 pi_d_a13_a2_proc_0
      + 880 pi_d_a13_a4_proc_0 + 880 pi_d_a13_a6_proc_0
      + 880 pi_d_a13_a10_proc_0 + 880 pi_d_a13_a12_proc_0
      + 880 pi_d_a13_a14_proc_0 + pi_y1_a13 + pi_y2_a13_proc_0 >= 0
 c36: pi_p_a14_a13 + pi_p_a14_a2 - pi_p_a10_a14 - pi_d_a0_a14_proc_0
      + pi_d_a14_a0_proc_0 - pi_d_a1_a14_proc_0 - pi_d_a1_a14_proc_1
      + pi_d_a14_a1_proc_0 + pi_d_a14_a1_proc_1 - pi_d_a2_a14_proc_0
      - pi_d_a2_a14_proc_1 + pi_d_a14_a2_proc_0 + pi_d_a14_a2_proc_1
      - pi_d_a3_a14_proc_1 + pi_d_a14_a3_proc_1 - pi_d_a4_a14_proc_0
      + pi_d_a14_a4_proc_0 - pi_d_a5_a14_proc_1 + pi_d_a14_a5_proc_1
      - pi_d_a6_a14_proc_0 - pi_d_a6_a14_proc_1 + pi_d_a14_a6_proc_0
      + pi_d_a14_a6_proc_1 - pi_d_a7_a14_proc_1 + pi_d_a14_a7_proc_1
      - pi_d_a8_a14_proc_1 + pi_d_a14_a8_proc_1 - pi_d_a9_a14_proc_1
      + pi_d_a14_a9_proc_1 - pi_d_a10_a14_proc_0 - pi_d_a10_a14_proc_1
      + pi_d_a14_a10_proc_0 + pi_d_a14_a10_proc_1 - pi_d_a11_a14_proc_1
      + pi_d_a14_a11_proc_1 - pi_d_a12_a14_proc_0 - pi_d_a12_a14_proc_1
      + pi_d_a14_a12_proc_0 + pi_d_a14_a12_proc_1 - pi_d_a13_a14_proc_0
      + pi_d_a14_a13_proc_0 >= 0
 c37: 663 pi_p_a14_a13 + 663 pi_p_a14_a2 + 663 pi_d_a14_a0_proc_0
      + 663 pi_d_a14_a1_proc_0 + 663 pi_d_a14_a2_proc_0 + 663 pi_d_a14_a4_proc_0
      + 663 pi_d_a14_a6_proc_0 + 663 pi_d_a14_a10_proc_0
      + 663 pi_d_a14_a12_proc_0 + 663 pi_d_a14_a13_proc_0 + pi_y1_a14
      + pi_y2_a14_proc_0 >= 0
 c38: 830 pi_p_a14_a13 + 830 pi_p_a14_a2 + 830 pi_d_a14_a1_proc_1
      + 830 pi_d_a14_a2_proc_1 + 830 pi_d_a14_a3_proc_1 + 830 pi_d_a14_a5_proc_1
      + 830 pi_d_a14_a6_proc_1 + 830 pi_d_a14_a7_proc_1 + 830 pi_d_a14_a8_proc_1
      + 830 pi_d_a14_a9_proc_1 + 830 pi_d_a14_a10_proc_1
      + 830 pi_d_a14_a11_proc_1 + 830 pi_d_a14_a12_proc_1 + pi_y1_a14
      + pi_y2_a14_proc_1 >= 0

Bounds
       pi_y1_a0 Free
       pi_y1_a1 Free
       pi_y1_a2 Free
       pi_y1_a3 Free
       pi_y1_a4 Free
       pi_y1_a5 Free
       pi_y1_a6 Free
       pi_y1_a7 Free
       pi_y1_a8 Free
       pi_y1_a9 Free
       pi_y1_a10 Free
       pi_y1_a11 Free
       pi_y1_a12 Free
       pi_y1_a13 Free
       pi_y1_a14 Free
End
